(set-info :smt-lib-version 2.6)
(set-logic QF_NIA)
(set-info :source |
Generated by: Cristina Borralleras, Daniel Larraz, Albert Oliveras, Enric Rodriguez-Carbonell, Albert Rubio
Generated on: 2017-04-27
Generator: VeryMax
Application: Termination proving
Target solver: barcelogic
|)
(set-info :license "https://creativecommons.org/licenses/by/4.0/")
(set-info :category "industrial")
(set-info :status unknown)
(declare-fun Nl2main_x1 () Int)
(declare-fun Nl2main_y1 () Int)
(declare-fun Nl2main_z1 () Int)
(declare-fun lam0n0 () Int)
(declare-fun lam0n1 () Int)
(declare-fun lam0n2 () Int)
(declare-fun lam0n3 () Int)
(declare-fun lam0n4 () Int)
(declare-fun lam0n5 () Int)
(declare-fun lam0n6 () Int)
(declare-fun lam0n7 () Int)
(declare-fun Nl2CT1 () Int)
(declare-fun lam1n0 () Int)
(declare-fun lam1n1 () Int)
(declare-fun lam1n2 () Int)
(declare-fun lam1n3 () Int)
(declare-fun lam1n4 () Int)
(declare-fun lam1n5 () Int)
(declare-fun lam1n6 () Int)
(declare-fun lam1n7 () Int)
(declare-fun lam2n0 () Int)
(declare-fun lam2n1 () Int)
(declare-fun lam2n2 () Int)
(declare-fun lam2n3 () Int)
(declare-fun lam2n4 () Int)
(declare-fun lam2n5 () Int)
(declare-fun lam2n6 () Int)
(declare-fun lam2n7 () Int)
(declare-fun lam2n8 () Int)
(declare-fun lam2n9 () Int)
(declare-fun lam3n0 () Int)
(declare-fun lam3n1 () Int)
(declare-fun lam3n2 () Int)
(declare-fun lam3n3 () Int)
(declare-fun lam3n4 () Int)
(declare-fun lam3n5 () Int)
(declare-fun lam3n6 () Int)
(declare-fun lam3n7 () Int)
(declare-fun lam3n8 () Int)
(declare-fun lam3n9 () Int)
(declare-fun lam4n0 () Int)
(declare-fun lam4n1 () Int)
(declare-fun lam4n2 () Int)
(declare-fun lam4n3 () Int)
(declare-fun lam4n4 () Int)
(declare-fun lam4n5 () Int)
(declare-fun lam4n6 () Int)
(declare-fun lam4n7 () Int)
(declare-fun lam5n0 () Int)
(declare-fun lam5n1 () Int)
(declare-fun lam5n2 () Int)
(declare-fun lam5n3 () Int)
(declare-fun lam5n4 () Int)
(declare-fun lam5n5 () Int)
(declare-fun lam5n6 () Int)
(declare-fun lam5n7 () Int)
(declare-fun lam6n0 () Int)
(declare-fun lam6n1 () Int)
(declare-fun lam6n2 () Int)
(declare-fun lam6n3 () Int)
(declare-fun lam6n4 () Int)
(declare-fun lam6n5 () Int)
(declare-fun lam6n6 () Int)
(declare-fun lam6n7 () Int)
(declare-fun lam7n0 () Int)
(declare-fun lam7n1 () Int)
(declare-fun lam7n2 () Int)
(declare-fun lam7n3 () Int)
(declare-fun lam7n4 () Int)
(declare-fun lam7n5 () Int)
(declare-fun lam7n6 () Int)
(declare-fun lam7n7 () Int)
(declare-fun lam8n0 () Int)
(declare-fun lam8n1 () Int)
(declare-fun lam8n2 () Int)
(declare-fun lam8n3 () Int)
(declare-fun lam8n4 () Int)
(declare-fun lam8n5 () Int)
(declare-fun lam8n6 () Int)
(declare-fun lam8n7 () Int)
(declare-fun lam8n8 () Int)
(declare-fun lam9n0 () Int)
(declare-fun lam9n1 () Int)
(declare-fun lam9n2 () Int)
(declare-fun lam9n3 () Int)
(declare-fun lam9n4 () Int)
(declare-fun lam9n5 () Int)
(declare-fun lam9n6 () Int)
(declare-fun lam9n7 () Int)
(declare-fun lam9n8 () Int)
(declare-fun lam10n0 () Int)
(declare-fun lam10n1 () Int)
(declare-fun lam10n2 () Int)
(declare-fun lam10n3 () Int)
(declare-fun lam10n4 () Int)
(declare-fun lam10n5 () Int)
(declare-fun lam10n6 () Int)
(declare-fun lam11n0 () Int)
(declare-fun lam11n1 () Int)
(declare-fun lam11n2 () Int)
(declare-fun lam11n3 () Int)
(declare-fun lam11n4 () Int)
(declare-fun lam11n5 () Int)
(declare-fun lam11n6 () Int)
(declare-fun lam12n0 () Int)
(declare-fun lam12n1 () Int)
(declare-fun lam12n2 () Int)
(declare-fun lam12n3 () Int)
(declare-fun lam12n4 () Int)
(declare-fun lam12n5 () Int)
(declare-fun lam12n6 () Int)
(declare-fun lam13n0 () Int)
(declare-fun lam13n1 () Int)
(declare-fun lam13n2 () Int)
(declare-fun lam13n3 () Int)
(declare-fun lam13n4 () Int)
(declare-fun lam13n5 () Int)
(declare-fun lam13n6 () Int)
(declare-fun lam14n0 () Int)
(declare-fun lam14n1 () Int)
(declare-fun lam14n2 () Int)
(declare-fun lam14n3 () Int)
(declare-fun lam14n4 () Int)
(declare-fun lam14n5 () Int)
(declare-fun lam14n6 () Int)
(declare-fun lam14n7 () Int)
(declare-fun lam14n8 () Int)
(declare-fun lam15n0 () Int)
(declare-fun lam15n1 () Int)
(declare-fun lam15n2 () Int)
(declare-fun lam15n3 () Int)
(declare-fun lam15n4 () Int)
(declare-fun lam15n5 () Int)
(declare-fun lam15n6 () Int)
(declare-fun lam15n7 () Int)
(declare-fun lam15n8 () Int)
(declare-fun lam15n9 () Int)
(declare-fun lam15n10 () Int)
(declare-fun lam15n11 () Int)
(declare-fun lam16n0 () Int)
(declare-fun lam16n1 () Int)
(declare-fun lam16n2 () Int)
(declare-fun lam16n3 () Int)
(declare-fun lam16n4 () Int)
(declare-fun lam16n5 () Int)
(declare-fun lam16n6 () Int)
(declare-fun lam16n7 () Int)
(declare-fun lam16n8 () Int)
(declare-fun lam16n9 () Int)
(declare-fun lam17n0 () Int)
(declare-fun lam17n1 () Int)
(declare-fun lam17n2 () Int)
(declare-fun lam17n3 () Int)
(declare-fun lam17n4 () Int)
(declare-fun lam17n5 () Int)
(declare-fun lam17n6 () Int)
(declare-fun lam17n7 () Int)
(declare-fun lam17n8 () Int)
(declare-fun lam17n9 () Int)
(declare-fun lam18n0 () Int)
(declare-fun lam18n1 () Int)
(declare-fun lam18n2 () Int)
(declare-fun lam18n3 () Int)
(declare-fun lam18n4 () Int)
(declare-fun lam18n5 () Int)
(declare-fun lam18n6 () Int)
(declare-fun lam18n7 () Int)
(declare-fun lam18n8 () Int)
(declare-fun lam18n9 () Int)
(declare-fun lam18n10 () Int)
(declare-fun lam19n0 () Int)
(declare-fun lam19n1 () Int)
(declare-fun lam19n2 () Int)
(declare-fun lam19n3 () Int)
(declare-fun lam19n4 () Int)
(declare-fun lam19n5 () Int)
(declare-fun lam19n6 () Int)
(declare-fun lam19n7 () Int)
(declare-fun lam19n8 () Int)
(declare-fun lam20n0 () Int)
(declare-fun lam20n1 () Int)
(declare-fun lam20n2 () Int)
(declare-fun lam20n3 () Int)
(declare-fun lam20n4 () Int)
(declare-fun lam20n5 () Int)
(declare-fun lam20n6 () Int)
(declare-fun lam20n7 () Int)
(declare-fun lam20n8 () Int)
(declare-fun main_x () Int)
(declare-fun main_z () Int)
(declare-fun main_y () Int)
(declare-fun undef4 () Int)
(declare-fun undef5 () Int)
(declare-fun undef6 () Int)
(declare-fun lam24n0 () Int)
(declare-fun lam24n1 () Int)
(declare-fun lam24n2 () Int)
(declare-fun lam24n3 () Int)
(declare-fun lam24n4 () Int)
(declare-fun lam24n5 () Int)
(declare-fun lam24n6 () Int)
(declare-fun lam24n7 () Int)
(declare-fun lam24n8 () Int)
(declare-fun lam24n9 () Int)
(declare-fun lam24n10 () Int)
(declare-fun lam24n11 () Int)
(declare-fun lam24n12 () Int)
(declare-fun lam24n13 () Int)
(declare-fun lam24n14 () Int)
(declare-fun lam24n15 () Int)
(declare-fun lam24n16 () Int)
(declare-fun lam24n17 () Int)
(declare-fun RFN1_CT () Int)
(declare-fun RFN1_main_x () Int)
(declare-fun RFN1_main_y () Int)
(declare-fun RFN1_main_z () Int)
(declare-fun lam22n0 () Int)
(declare-fun lam22n1 () Int)
(declare-fun lam22n2 () Int)
(declare-fun lam22n3 () Int)
(declare-fun lam22n4 () Int)
(declare-fun lam22n5 () Int)
(declare-fun lam22n6 () Int)
(declare-fun lam22n7 () Int)
(declare-fun lam22n8 () Int)
(declare-fun lam22n9 () Int)
(declare-fun lam22n10 () Int)
(declare-fun lam22n11 () Int)
(declare-fun lam22n12 () Int)
(declare-fun lam22n13 () Int)
(declare-fun lam22n14 () Int)
(declare-fun lam22n15 () Int)
(declare-fun lam22n16 () Int)
(declare-fun lam22n17 () Int)
(declare-fun lam23n0 () Int)
(declare-fun lam23n1 () Int)
(declare-fun lam23n2 () Int)
(declare-fun lam23n3 () Int)
(declare-fun lam23n4 () Int)
(declare-fun lam23n5 () Int)
(declare-fun lam23n6 () Int)
(declare-fun lam23n7 () Int)
(declare-fun lam23n8 () Int)
(declare-fun lam23n9 () Int)
(declare-fun lam23n10 () Int)
(declare-fun lam23n11 () Int)
(declare-fun lam23n12 () Int)
(declare-fun lam23n13 () Int)
(declare-fun lam23n14 () Int)
(declare-fun lam23n15 () Int)
(declare-fun lam23n16 () Int)
(declare-fun lam23n17 () Int)
(declare-fun lam21n0 () Int)
(declare-fun lam21n1 () Int)
(declare-fun lam21n2 () Int)
(declare-fun lam21n3 () Int)
(declare-fun lam21n4 () Int)
(declare-fun lam21n5 () Int)
(declare-fun lam21n6 () Int)
(declare-fun lam21n7 () Int)
(declare-fun lam21n8 () Int)
(declare-fun lam21n9 () Int)
(declare-fun lam21n10 () Int)
(declare-fun lam21n11 () Int)
(declare-fun lam21n12 () Int)
(declare-fun lam21n13 () Int)
(declare-fun lam21n14 () Int)
(declare-fun lam21n15 () Int)
(declare-fun lam21n16 () Int)
(declare-fun lam21n17 () Int)
(assert ( and ( <= ( - 2 ) Nl2main_x1 ) ( <= Nl2main_x1 2 ) ( <= ( - 2 ) Nl2main_y1 ) ( <= Nl2main_y1 2 ) ( <= ( - 2 ) Nl2main_z1 ) ( <= Nl2main_z1 2 ) ))
(assert ( or ( and ( >= lam0n0 0 ) ( >= lam0n1 0 ) ( >= lam0n2 0 ) ( >= lam0n3 0 ) ( >= lam0n4 0 ) ( >= lam0n5 0 ) ( >= lam0n6 0 ) ( >= lam0n7 0 ) ( > ( + ( * 2 lam0n1 ) ( * 2 lam0n2 ) ( * 1 lam0n3 ) ( * 1 lam0n4 ) ( * 1 lam0n5 ) ( * 3 lam0n6 ) ( * Nl2CT1 lam0n7 ) ( - 1 ) ) 0 ) ( = ( + ( * ( - 1 ) lam0n0 ) ( * 1 lam0n1 ) ( * 1 lam0n2 ) ( * 2 lam0n3 ) ( * 1 lam0n4 ) ( * Nl2main_x1 lam0n7 ) ) 0 ) ( = ( + ( * ( - 2 ) lam0n1 ) ( * ( - 1 ) lam0n2 ) ( * ( - 2 ) lam0n3 ) ( * ( - 2 ) lam0n6 ) ( * Nl2main_y1 lam0n7 ) ) 0 ) ( = ( + ( * ( - 1 ) lam0n0 ) ( * 1 lam0n3 ) ( * ( - 1 ) lam0n5 ) ( * ( - 1 ) lam0n6 ) ( * Nl2main_z1 lam0n7 ) ) 0 ) ) ( and ( >= lam1n0 0 ) ( >= lam1n1 0 ) ( >= lam1n2 0 ) ( >= lam1n3 0 ) ( >= lam1n4 0 ) ( >= lam1n5 0 ) ( >= lam1n6 0 ) ( >= lam1n7 0 ) ( > ( + ( * 2 lam1n1 ) ( * 2 lam1n2 ) ( * 1 lam1n3 ) ( * 1 lam1n4 ) ( * 1 lam1n5 ) ( * 3 lam1n6 ) ( * Nl2CT1 lam1n7 ) ( - 1 ( + ( + ( + Nl2CT1 ( * Nl2main_x1 0 ) ) ( * Nl2main_y1 1 ) ) ( * Nl2main_z1 0 ) ) ) ) 0 ) ( = ( + ( * ( - 1 ) lam1n0 ) ( * 1 lam1n1 ) ( * 1 lam1n2 ) ( * 2 lam1n3 ) ( * 1 lam1n4 ) ( * Nl2main_x1 lam1n7 ) ( - ( + 0 ( * Nl2main_x1 1 ) ) ) ) 0 ) ( = ( + ( * ( - 2 ) lam1n1 ) ( * ( - 1 ) lam1n2 ) ( * ( - 2 ) lam1n3 ) ( * ( - 2 ) lam1n6 ) ( * Nl2main_y1 lam1n7 ) ( - ( + ( + 0 ( * Nl2main_y1 1 ) ) ( * Nl2main_z1 ( - 2 ) ) ) ) ) 0 ) ( = ( + ( * ( - 1 ) lam1n0 ) ( * 1 lam1n3 ) ( * ( - 1 ) lam1n5 ) ( * ( - 1 ) lam1n6 ) ( * Nl2main_z1 lam1n7 ) ( - ( + 0 ( * Nl2main_x1 1 ) ) ) ) 0 ) ) ))
(assert ( or ( and ( >= lam2n0 0 ) ( >= lam2n1 0 ) ( >= lam2n2 0 ) ( >= lam2n3 0 ) ( >= lam2n4 0 ) ( >= lam2n5 0 ) ( >= lam2n6 0 ) ( >= lam2n7 0 ) ( >= lam2n8 0 ) ( >= lam2n9 0 ) ( > ( + ( * 2 lam2n1 ) ( * 2 lam2n2 ) ( * ( - 2 ) lam2n3 ) ( * 1 lam2n4 ) ( * 1 lam2n5 ) ( * 1 lam2n6 ) ( * 1 lam2n7 ) ( * 1 lam2n8 ) ( * Nl2CT1 lam2n9 ) ( - 1 ) ) 0 ) ( = ( + ( * 1 lam2n0 ) ( * 1 lam2n1 ) ( * 1 lam2n2 ) ( * 2 lam2n4 ) ( * 1 lam2n5 ) ( * 1 lam2n6 ) ( * Nl2main_x1 lam2n9 ) ) 0 ) ( = ( + ( * ( - 1 ) lam2n0 ) ( * ( - 2 ) lam2n1 ) ( * ( - 1 ) lam2n2 ) ( * 2 lam2n3 ) ( * ( - 2 ) lam2n4 ) ( * ( - 2 ) lam2n7 ) ( * Nl2main_y1 lam2n9 ) ) 0 ) ( = ( + ( * 1 lam2n0 ) ( * 1 lam2n3 ) ( * 1 lam2n4 ) ( * 1 lam2n6 ) ( * ( - 1 ) lam2n7 ) ( * ( - 1 ) lam2n8 ) ( * Nl2main_z1 lam2n9 ) ) 0 ) ) ( and ( >= lam3n0 0 ) ( >= lam3n1 0 ) ( >= lam3n2 0 ) ( >= lam3n3 0 ) ( >= lam3n4 0 ) ( >= lam3n5 0 ) ( >= lam3n6 0 ) ( >= lam3n7 0 ) ( >= lam3n8 0 ) ( >= lam3n9 0 ) ( > ( + ( * 2 lam3n1 ) ( * 2 lam3n2 ) ( * ( - 2 ) lam3n3 ) ( * 1 lam3n4 ) ( * 1 lam3n5 ) ( * 1 lam3n6 ) ( * 1 lam3n7 ) ( * 1 lam3n8 ) ( * Nl2CT1 lam3n9 ) ( - 1 ( + ( + ( + Nl2CT1 ( * Nl2main_x1 0 ) ) ( * Nl2main_y1 1 ) ) ( * Nl2main_z1 0 ) ) ) ) 0 ) ( = ( + ( * 1 lam3n0 ) ( * 1 lam3n1 ) ( * 1 lam3n2 ) ( * 2 lam3n4 ) ( * 1 lam3n5 ) ( * 1 lam3n6 ) ( * Nl2main_x1 lam3n9 ) ( - ( + 0 ( * Nl2main_x1 1 ) ) ) ) 0 ) ( = ( + ( * ( - 1 ) lam3n0 ) ( * ( - 2 ) lam3n1 ) ( * ( - 1 ) lam3n2 ) ( * 2 lam3n3 ) ( * ( - 2 ) lam3n4 ) ( * ( - 2 ) lam3n7 ) ( * Nl2main_y1 lam3n9 ) ( - ( + ( + 0 ( * Nl2main_y1 1 ) ) ( * Nl2main_z1 ( - 2 ) ) ) ) ) 0 ) ( = ( + ( * 1 lam3n0 ) ( * 1 lam3n3 ) ( * 1 lam3n4 ) ( * 1 lam3n6 ) ( * ( - 1 ) lam3n7 ) ( * ( - 1 ) lam3n8 ) ( * Nl2main_z1 lam3n9 ) ( - ( + 0 ( * Nl2main_x1 1 ) ) ) ) 0 ) ) ))
(assert ( or ( and ( >= lam4n0 0 ) ( >= lam4n1 0 ) ( >= lam4n2 0 ) ( >= lam4n3 0 ) ( >= lam4n4 0 ) ( >= lam4n5 0 ) ( >= lam4n6 0 ) ( >= lam4n7 0 ) ( > ( + ( * 2 lam4n0 ) ( * 2 lam4n1 ) ( * 1 lam4n2 ) ( * 1 lam4n3 ) ( * 1 lam4n4 ) ( * 1 lam4n5 ) ( * 3 lam4n6 ) ( * Nl2CT1 lam4n7 ) ( - 1 ) ) 0 ) ( = ( + ( * 1 lam4n0 ) ( * 1 lam4n1 ) ( * 2 lam4n2 ) ( * 1 lam4n3 ) ( * 1 lam4n4 ) ( * Nl2main_x1 lam4n7 ) ) 0 ) ( = ( + ( * ( - 2 ) lam4n0 ) ( * ( - 1 ) lam4n1 ) ( * ( - 2 ) lam4n2 ) ( * ( - 2 ) lam4n6 ) ( * Nl2main_y1 lam4n7 ) ) 0 ) ( = ( + ( * 1 lam4n2 ) ( * 1 lam4n4 ) ( * ( - 1 ) lam4n5 ) ( * ( - 1 ) lam4n6 ) ( * Nl2main_z1 lam4n7 ) ) 0 ) ) ( and ( >= lam5n0 0 ) ( >= lam5n1 0 ) ( >= lam5n2 0 ) ( >= lam5n3 0 ) ( >= lam5n4 0 ) ( >= lam5n5 0 ) ( >= lam5n6 0 ) ( >= lam5n7 0 ) ( > ( + ( * 2 lam5n0 ) ( * 2 lam5n1 ) ( * 1 lam5n2 ) ( * 1 lam5n3 ) ( * 1 lam5n4 ) ( * 1 lam5n5 ) ( * 3 lam5n6 ) ( * Nl2CT1 lam5n7 ) ( - 1 ( + ( + ( + Nl2CT1 ( * Nl2main_x1 0 ) ) ( * Nl2main_y1 1 ) ) ( * Nl2main_z1 0 ) ) ) ) 0 ) ( = ( + ( * 1 lam5n0 ) ( * 1 lam5n1 ) ( * 2 lam5n2 ) ( * 1 lam5n3 ) ( * 1 lam5n4 ) ( * Nl2main_x1 lam5n7 ) ( - ( + 0 ( * Nl2main_x1 1 ) ) ) ) 0 ) ( = ( + ( * ( - 2 ) lam5n0 ) ( * ( - 1 ) lam5n1 ) ( * ( - 2 ) lam5n2 ) ( * ( - 2 ) lam5n6 ) ( * Nl2main_y1 lam5n7 ) ( - ( + ( + 0 ( * Nl2main_y1 1 ) ) ( * Nl2main_z1 ( - 2 ) ) ) ) ) 0 ) ( = ( + ( * 1 lam5n2 ) ( * 1 lam5n4 ) ( * ( - 1 ) lam5n5 ) ( * ( - 1 ) lam5n6 ) ( * Nl2main_z1 lam5n7 ) ( - ( + 0 ( * Nl2main_x1 1 ) ) ) ) 0 ) ) ))
(assert ( or ( and ( >= lam6n0 0 ) ( >= lam6n1 0 ) ( >= lam6n2 0 ) ( >= lam6n3 0 ) ( >= lam6n4 0 ) ( >= lam6n5 0 ) ( >= lam6n6 0 ) ( >= lam6n7 0 ) ( > ( + ( * 2 lam6n2 ) ( * 1 lam6n3 ) ( * 1 lam6n4 ) ( * 1 lam6n5 ) ( * 1 lam6n6 ) ( * Nl2CT1 lam6n7 ) ( - 1 ) ) 0 ) ( = ( + ( * 1 lam6n0 ) ( * 1 lam6n2 ) ( * 2 lam6n3 ) ( * 1 lam6n4 ) ( * 1 lam6n5 ) ( * Nl2main_x1 lam6n7 ) ) 0 ) ( = ( + ( * ( - 1 ) lam6n0 ) ( * 2 lam6n1 ) ( * ( - 1 ) lam6n2 ) ( * ( - 2 ) lam6n3 ) ( * Nl2main_y1 lam6n7 ) ) 0 ) ( = ( + ( * 1 lam6n0 ) ( * 1 lam6n1 ) ( * 1 lam6n3 ) ( * 1 lam6n5 ) ( * ( - 1 ) lam6n6 ) ( * Nl2main_z1 lam6n7 ) ) 0 ) ) ( and ( >= lam7n0 0 ) ( >= lam7n1 0 ) ( >= lam7n2 0 ) ( >= lam7n3 0 ) ( >= lam7n4 0 ) ( >= lam7n5 0 ) ( >= lam7n6 0 ) ( >= lam7n7 0 ) ( > ( + ( * 2 lam7n2 ) ( * 1 lam7n3 ) ( * 1 lam7n4 ) ( * 1 lam7n5 ) ( * 1 lam7n6 ) ( * Nl2CT1 lam7n7 ) ( - 1 ( + ( + ( + Nl2CT1 ( * Nl2main_x1 0 ) ) ( * Nl2main_y1 1 ) ) ( * Nl2main_z1 0 ) ) ) ) 0 ) ( = ( + ( * 1 lam7n0 ) ( * 1 lam7n2 ) ( * 2 lam7n3 ) ( * 1 lam7n4 ) ( * 1 lam7n5 ) ( * Nl2main_x1 lam7n7 ) ( - ( + 0 ( * Nl2main_x1 1 ) ) ) ) 0 ) ( = ( + ( * ( - 1 ) lam7n0 ) ( * 2 lam7n1 ) ( * ( - 1 ) lam7n2 ) ( * ( - 2 ) lam7n3 ) ( * Nl2main_y1 lam7n7 ) ( - ( + ( + 0 ( * Nl2main_y1 1 ) ) ( * Nl2main_z1 ( - 2 ) ) ) ) ) 0 ) ( = ( + ( * 1 lam7n0 ) ( * 1 lam7n1 ) ( * 1 lam7n3 ) ( * 1 lam7n5 ) ( * ( - 1 ) lam7n6 ) ( * Nl2main_z1 lam7n7 ) ( - ( + 0 ( * Nl2main_x1 1 ) ) ) ) 0 ) ) ))
(assert ( or ( and ( >= lam8n0 0 ) ( >= lam8n1 0 ) ( >= lam8n2 0 ) ( >= lam8n3 0 ) ( >= lam8n4 0 ) ( >= lam8n5 0 ) ( >= lam8n6 0 ) ( >= lam8n7 0 ) ( >= lam8n8 0 ) ( > ( + ( * 2 lam8n2 ) ( * ( - 2 ) lam8n3 ) ( * 1 lam8n4 ) ( * 1 lam8n5 ) ( * 1 lam8n6 ) ( * 1 lam8n7 ) ( * Nl2CT1 lam8n8 ) ( - 1 ) ) 0 ) ( = ( + ( * 1 lam8n0 ) ( * 1 lam8n2 ) ( * 2 lam8n4 ) ( * 1 lam8n5 ) ( * 1 lam8n6 ) ( * Nl2main_x1 lam8n8 ) ) 0 ) ( = ( + ( * ( - 1 ) lam8n0 ) ( * ( - 2 ) lam8n2 ) ( * 2 lam8n3 ) ( * ( - 2 ) lam8n4 ) ( * ( - 2 ) lam8n7 ) ( * Nl2main_y1 lam8n8 ) ) 0 ) ( = ( + ( * 1 lam8n0 ) ( * 1 lam8n1 ) ( * 1 lam8n3 ) ( * 1 lam8n4 ) ( * 1 lam8n6 ) ( * ( - 1 ) lam8n7 ) ( * Nl2main_z1 lam8n8 ) ) 0 ) ) ( and ( >= lam9n0 0 ) ( >= lam9n1 0 ) ( >= lam9n2 0 ) ( >= lam9n3 0 ) ( >= lam9n4 0 ) ( >= lam9n5 0 ) ( >= lam9n6 0 ) ( >= lam9n7 0 ) ( >= lam9n8 0 ) ( > ( + ( * 2 lam9n2 ) ( * ( - 2 ) lam9n3 ) ( * 1 lam9n4 ) ( * 1 lam9n5 ) ( * 1 lam9n6 ) ( * 1 lam9n7 ) ( * Nl2CT1 lam9n8 ) ( - 1 ( + ( + ( + Nl2CT1 ( * Nl2main_x1 0 ) ) ( * Nl2main_y1 1 ) ) ( * Nl2main_z1 0 ) ) ) ) 0 ) ( = ( + ( * 1 lam9n0 ) ( * 1 lam9n2 ) ( * 2 lam9n4 ) ( * 1 lam9n5 ) ( * 1 lam9n6 ) ( * Nl2main_x1 lam9n8 ) ( - ( + 0 ( * Nl2main_x1 1 ) ) ) ) 0 ) ( = ( + ( * ( - 1 ) lam9n0 ) ( * ( - 2 ) lam9n2 ) ( * 2 lam9n3 ) ( * ( - 2 ) lam9n4 ) ( * ( - 2 ) lam9n7 ) ( * Nl2main_y1 lam9n8 ) ( - ( + ( + 0 ( * Nl2main_y1 1 ) ) ( * Nl2main_z1 ( - 2 ) ) ) ) ) 0 ) ( = ( + ( * 1 lam9n0 ) ( * 1 lam9n1 ) ( * 1 lam9n3 ) ( * 1 lam9n4 ) ( * 1 lam9n6 ) ( * ( - 1 ) lam9n7 ) ( * Nl2main_z1 lam9n8 ) ( - ( + 0 ( * Nl2main_x1 1 ) ) ) ) 0 ) ) ))
(assert ( or ( and ( >= lam10n0 0 ) ( >= lam10n1 0 ) ( >= lam10n2 0 ) ( >= lam10n3 0 ) ( >= lam10n4 0 ) ( >= lam10n5 0 ) ( >= lam10n6 0 ) ( > ( + ( * 2 lam10n1 ) ( * 1 lam10n2 ) ( * 1 lam10n3 ) ( * 1 lam10n4 ) ( * 3 lam10n5 ) ( * Nl2CT1 lam10n6 ) ( - 1 ) ) 0 ) ( = ( + ( * 1 lam10n1 ) ( * 2 lam10n2 ) ( * 1 lam10n3 ) ( * 1 lam10n4 ) ( * Nl2main_x1 lam10n6 ) ) 0 ) ( = ( + ( * ( - 2 ) lam10n1 ) ( * ( - 2 ) lam10n2 ) ( * ( - 2 ) lam10n5 ) ( * Nl2main_y1 lam10n6 ) ) 0 ) ( = ( + ( * 1 lam10n0 ) ( * 1 lam10n2 ) ( * 1 lam10n4 ) ( * ( - 1 ) lam10n5 ) ( * Nl2main_z1 lam10n6 ) ) 0 ) ) ( and ( >= lam11n0 0 ) ( >= lam11n1 0 ) ( >= lam11n2 0 ) ( >= lam11n3 0 ) ( >= lam11n4 0 ) ( >= lam11n5 0 ) ( >= lam11n6 0 ) ( > ( + ( * 2 lam11n1 ) ( * 1 lam11n2 ) ( * 1 lam11n3 ) ( * 1 lam11n4 ) ( * 3 lam11n5 ) ( * Nl2CT1 lam11n6 ) ( - 1 ( + ( + ( + Nl2CT1 ( * Nl2main_x1 0 ) ) ( * Nl2main_y1 1 ) ) ( * Nl2main_z1 0 ) ) ) ) 0 ) ( = ( + ( * 1 lam11n1 ) ( * 2 lam11n2 ) ( * 1 lam11n3 ) ( * 1 lam11n4 ) ( * Nl2main_x1 lam11n6 ) ( - ( + 0 ( * Nl2main_x1 1 ) ) ) ) 0 ) ( = ( + ( * ( - 2 ) lam11n1 ) ( * ( - 2 ) lam11n2 ) ( * ( - 2 ) lam11n5 ) ( * Nl2main_y1 lam11n6 ) ( - ( + ( + 0 ( * Nl2main_y1 1 ) ) ( * Nl2main_z1 ( - 2 ) ) ) ) ) 0 ) ( = ( + ( * 1 lam11n0 ) ( * 1 lam11n2 ) ( * 1 lam11n4 ) ( * ( - 1 ) lam11n5 ) ( * Nl2main_z1 lam11n6 ) ( - ( + 0 ( * Nl2main_x1 1 ) ) ) ) 0 ) ) ))
(assert ( or ( and ( >= lam12n0 0 ) ( >= lam12n1 0 ) ( >= lam12n2 0 ) ( >= lam12n3 0 ) ( >= lam12n4 0 ) ( >= lam12n5 0 ) ( >= lam12n6 0 ) ( > ( + ( * 1 lam12n3 ) ( * 1 lam12n4 ) ( * 1 lam12n5 ) ( * Nl2CT1 lam12n6 ) ( - 1 ) ) 0 ) ( = ( + ( * 1 lam12n0 ) ( * 2 lam12n3 ) ( * 1 lam12n4 ) ( * 1 lam12n5 ) ( * Nl2main_x1 lam12n6 ) ) 0 ) ( = ( + ( * ( - 1 ) lam12n0 ) ( * 2 lam12n1 ) ( * ( - 2 ) lam12n3 ) ( * Nl2main_y1 lam12n6 ) ) 0 ) ( = ( + ( * 1 lam12n0 ) ( * 1 lam12n1 ) ( * 1 lam12n2 ) ( * 1 lam12n3 ) ( * 1 lam12n5 ) ( * Nl2main_z1 lam12n6 ) ) 0 ) ) ( and ( >= lam13n0 0 ) ( >= lam13n1 0 ) ( >= lam13n2 0 ) ( >= lam13n3 0 ) ( >= lam13n4 0 ) ( >= lam13n5 0 ) ( >= lam13n6 0 ) ( > ( + ( * 1 lam13n3 ) ( * 1 lam13n4 ) ( * 1 lam13n5 ) ( * Nl2CT1 lam13n6 ) ( - 1 ( + ( + ( + Nl2CT1 ( * Nl2main_x1 0 ) ) ( * Nl2main_y1 1 ) ) ( * Nl2main_z1 0 ) ) ) ) 0 ) ( = ( + ( * 1 lam13n0 ) ( * 2 lam13n3 ) ( * 1 lam13n4 ) ( * 1 lam13n5 ) ( * Nl2main_x1 lam13n6 ) ( - ( + 0 ( * Nl2main_x1 1 ) ) ) ) 0 ) ( = ( + ( * ( - 1 ) lam13n0 ) ( * 2 lam13n1 ) ( * ( - 2 ) lam13n3 ) ( * Nl2main_y1 lam13n6 ) ( - ( + ( + 0 ( * Nl2main_y1 1 ) ) ( * Nl2main_z1 ( - 2 ) ) ) ) ) 0 ) ( = ( + ( * 1 lam13n0 ) ( * 1 lam13n1 ) ( * 1 lam13n2 ) ( * 1 lam13n3 ) ( * 1 lam13n5 ) ( * Nl2main_z1 lam13n6 ) ( - ( + 0 ( * Nl2main_x1 1 ) ) ) ) 0 ) ) ))
(assert ( or ( and ( <= ( + ( * ( - 1 ) main_x ) ( * ( - 1 ) main_z ) ) 0 ) ( not ( <= ( + ( - 1 ) ( * ( - 1 ) main_x ) ( * 2 main_y ) ) 0 ) ) ( not ( <= ( + ( - 1 ) ( * ( - 1 ) main_x ) main_y ) 0 ) ) ( not ( <= ( + ( * ( - 2 ) main_x ) ( * 2 main_y ) ( * ( - 1 ) main_z ) ) 0 ) ) ( not ( <= ( * ( - 1 ) main_x ) 0 ) ) ( not ( <= ( + ( - 2 ) ( * 2 main_y ) main_z ) 0 ) ) ( = ( + main_x ( * ( - 1 ) undef4 ) ) 0 ) ( = ( + main_y ( * ( - 1 ) undef5 ) ) 0 ) ( = ( + main_z ( * ( - 1 ) undef6 ) ) 0 ) ( <= ( + Nl2CT1 ( * ( + 0 Nl2main_x1 ) main_x ) ( * ( + 0 Nl2main_y1 ) main_y ) ( * ( + 0 Nl2main_z1 ) main_z ) ) 0 ) ) ( and ( not ( <= ( + 1 ( * ( - 1 ) main_x ) main_y ( * ( - 1 ) main_z ) ) 0 ) ) ( not ( <= ( + ( - 1 ) ( * ( - 1 ) main_x ) ( * 2 main_y ) ) 0 ) ) ( not ( <= ( + ( - 1 ) ( * ( - 1 ) main_x ) main_y ) 0 ) ) ( <= ( + ( - 2 ) ( * 2 main_y ) main_z ) 0 ) ( not ( <= ( + ( * ( - 2 ) main_x ) ( * 2 main_y ) ( * ( - 1 ) main_z ) ) 0 ) ) ( not ( <= ( * ( - 1 ) main_x ) 0 ) ) ( not ( <= ( + ( * ( - 1 ) main_x ) ( * ( - 1 ) main_z ) ) 0 ) ) ( <= ( + 1 ( * ( - 2 ) main_y ) ( * ( - 1 ) main_z ) ) 0 ) ( <= ( + 1 ( * ( - 1 ) main_z ) ) 0 ) ( = ( + main_x ( * ( - 1 ) undef4 ) ) 0 ) ( = ( + main_y ( * ( - 1 ) undef5 ) ) 0 ) ( = ( + main_z ( * ( - 1 ) undef6 ) ) 0 ) ( <= ( + Nl2CT1 ( * ( + 0 Nl2main_x1 ) main_x ) ( * ( + 0 Nl2main_y1 ) main_y ) ( * ( + 0 Nl2main_z1 ) main_z ) ) 0 ) ) ( and ( not ( <= ( + ( - 1 ) ( * ( - 1 ) main_x ) ( * 2 main_y ) ) 0 ) ) ( not ( <= ( + ( - 1 ) ( * ( - 1 ) main_x ) main_y ) 0 ) ) ( not ( <= ( + ( * ( - 2 ) main_x ) ( * 2 main_y ) ( * ( - 1 ) main_z ) ) 0 ) ) ( not ( <= ( * ( - 1 ) main_x ) 0 ) ) ( not ( <= ( + ( * ( - 1 ) main_x ) ( * ( - 1 ) main_z ) ) 0 ) ) ( <= ( + 1 ( * ( - 1 ) main_z ) ) 0 ) ( not ( <= ( + ( - 2 ) ( * 2 main_y ) main_z ) 0 ) ) ( = ( + main_x ( * ( - 1 ) undef4 ) ) 0 ) ( = ( + main_y ( * ( - 1 ) undef5 ) ) 0 ) ( = ( + main_z ( * ( - 1 ) undef6 ) ) 0 ) ( <= ( + Nl2CT1 ( * ( + 0 Nl2main_x1 ) main_x ) ( * ( + 0 Nl2main_y1 ) main_y ) ( * ( + 0 Nl2main_z1 ) main_z ) ) 0 ) ) ( and ( not ( <= ( + 1 ( * ( - 1 ) main_x ) main_y ( * ( - 1 ) main_z ) ) 0 ) ) ( not ( <= ( + 1 ( * ( - 2 ) main_y ) ( * ( - 1 ) main_z ) ) 0 ) ) ( not ( <= ( + ( - 1 ) ( * ( - 1 ) main_x ) main_y ) 0 ) ) ( not ( <= ( + ( * ( - 2 ) main_x ) ( * 2 main_y ) ( * ( - 1 ) main_z ) ) 0 ) ) ( not ( <= ( * ( - 1 ) main_x ) 0 ) ) ( not ( <= ( + ( * ( - 1 ) main_x ) ( * ( - 1 ) main_z ) ) 0 ) ) ( <= ( + 1 ( * ( - 1 ) main_z ) ) 0 ) ( = ( + main_x ( * ( - 1 ) undef4 ) ) 0 ) ( = ( + main_y ( * ( - 1 ) undef5 ) ) 0 ) ( = ( + main_z ( * ( - 1 ) undef6 ) ) 0 ) ( <= ( + Nl2CT1 ( * ( + 0 Nl2main_x1 ) main_x ) ( * ( + 0 Nl2main_y1 ) main_y ) ( * ( + 0 Nl2main_z1 ) main_z ) ) 0 ) ) ( and ( not ( <= ( + 1 ( * ( - 1 ) main_x ) main_y ( * ( - 1 ) main_z ) ) 0 ) ) ( not ( <= ( + 1 ( * ( - 1 ) main_z ) ) 0 ) ) ( not ( <= ( + ( - 1 ) ( * ( - 1 ) main_x ) ( * 2 main_y ) ) 0 ) ) ( <= ( + ( - 2 ) ( * 2 main_y ) main_z ) 0 ) ( not ( <= ( + ( * ( - 2 ) main_x ) ( * 2 main_y ) ( * ( - 1 ) main_z ) ) 0 ) ) ( not ( <= ( * ( - 1 ) main_x ) 0 ) ) ( not ( <= ( + ( * ( - 1 ) main_x ) ( * ( - 1 ) main_z ) ) 0 ) ) ( <= ( + 1 ( * ( - 2 ) main_y ) ( * ( - 1 ) main_z ) ) 0 ) ( = ( + main_x ( * ( - 1 ) undef4 ) ) 0 ) ( = ( + main_y ( * ( - 1 ) undef5 ) ) 0 ) ( = ( + main_z ( * ( - 1 ) undef6 ) ) 0 ) ( <= ( + Nl2CT1 ( * ( + 0 Nl2main_x1 ) main_x ) ( * ( + 0 Nl2main_y1 ) main_y ) ( * ( + 0 Nl2main_z1 ) main_z ) ) 0 ) ) ( and ( not ( <= ( + 1 ( * ( - 1 ) main_z ) ) 0 ) ) ( not ( <= ( + ( - 1 ) ( * ( - 1 ) main_x ) ( * 2 main_y ) ) 0 ) ) ( not ( <= ( + ( * ( - 2 ) main_x ) ( * 2 main_y ) ( * ( - 1 ) main_z ) ) 0 ) ) ( not ( <= ( * ( - 1 ) main_x ) 0 ) ) ( not ( <= ( + ( * ( - 1 ) main_x ) ( * ( - 1 ) main_z ) ) 0 ) ) ( not ( <= ( + ( - 2 ) ( * 2 main_y ) main_z ) 0 ) ) ( = ( + main_x ( * ( - 1 ) undef4 ) ) 0 ) ( = ( + main_y ( * ( - 1 ) undef5 ) ) 0 ) ( = ( + main_z ( * ( - 1 ) undef6 ) ) 0 ) ( <= ( + Nl2CT1 ( * ( + 0 Nl2main_x1 ) main_x ) ( * ( + 0 Nl2main_y1 ) main_y ) ( * ( + 0 Nl2main_z1 ) main_z ) ) 0 ) ) ( and ( not ( <= ( + 1 ( * ( - 1 ) main_x ) main_y ( * ( - 1 ) main_z ) ) 0 ) ) ( not ( <= ( + 1 ( * ( - 2 ) main_y ) ( * ( - 1 ) main_z ) ) 0 ) ) ( not ( <= ( + 1 ( * ( - 1 ) main_z ) ) 0 ) ) ( not ( <= ( + ( * ( - 2 ) main_x ) ( * 2 main_y ) ( * ( - 1 ) main_z ) ) 0 ) ) ( not ( <= ( * ( - 1 ) main_x ) 0 ) ) ( not ( <= ( + ( * ( - 1 ) main_x ) ( * ( - 1 ) main_z ) ) 0 ) ) ( = ( + main_x ( * ( - 1 ) undef4 ) ) 0 ) ( = ( + main_y ( * ( - 1 ) undef5 ) ) 0 ) ( = ( + main_z ( * ( - 1 ) undef6 ) ) 0 ) ( <= ( + Nl2CT1 ( * ( + 0 Nl2main_x1 ) main_x ) ( * ( + 0 Nl2main_y1 ) main_y ) ( * ( + 0 Nl2main_z1 ) main_z ) ) 0 ) ) ))
(assert ( or ( and ( and ( >= lam24n0 0 ) ( >= lam24n1 0 ) ( >= lam24n2 0 ) ( >= lam24n3 0 ) ( >= lam24n4 0 ) ( >= lam24n5 0 ) ( >= lam24n6 0 ) ( >= lam24n7 0 ) ( >= lam24n8 0 ) ( >= lam24n9 0 ) ( >= lam24n10 0 ) ( >= lam24n11 0 ) ( >= lam24n12 0 ) ( >= lam24n13 0 ) ( >= lam24n14 0 ) ( >= lam24n15 0 ) ( >= lam24n16 0 ) ( >= lam24n17 0 ) ( > ( + ( * 2 lam24n0 ) ( * ( - 2 ) lam24n1 ) ( * 1 lam24n2 ) ( * 1 lam24n3 ) ( * 1 lam24n4 ) ( * 1 lam24n5 ) ( * 50001 lam24n6 ) ( * 50001 lam24n7 ) ( * 50001 lam24n8 ) ( * 50001 lam24n9 ) ( * 50001 lam24n10 ) ( * 50001 lam24n11 ) ( * 50001 lam24n12 ) ( * 50001 lam24n13 ) ( * 50001 lam24n14 ) ( * 50001 lam24n15 ) ( * 50001 lam24n16 ) ( * Nl2CT1 lam24n17 ) ( - 1 ( - ( + ( + ( + RFN1_CT ( * RFN1_main_x 0 ) ) ( * RFN1_main_y 1 ) ) ( * RFN1_main_z 0 ) ) RFN1_CT ) ) ) 0 ) ( = ( + ( * 1 lam24n0 ) ( * 2 lam24n2 ) ( * 1 lam24n3 ) ( * 1 lam24n4 ) ( * 2 lam24n6 ) ( * 1 lam24n7 ) ( * 1 lam24n8 ) ( * 1 lam24n9 ) ( * 1 lam24n10 ) ( * 1 lam24n11 ) ( * Nl2main_x1 lam24n17 ) ( - ( - ( + 0 ( * RFN1_main_x 1 ) ) RFN1_main_x ) ) ) 0 ) ( = ( + ( * ( - 2 ) lam24n0 ) ( * 2 lam24n1 ) ( * ( - 2 ) lam24n2 ) ( * ( - 2 ) lam24n5 ) ( * 1 lam24n6 ) ( * 1 lam24n7 ) ( * 1 lam24n8 ) ( * ( - 1 ) lam24n9 ) ( * ( - 1 ) lam24n10 ) ( * 1 lam24n12 ) ( * ( - 1 ) lam24n13 ) ( * ( - 1 ) lam24n14 ) ( * ( - 3 ) lam24n15 ) ( * Nl2main_y1 lam24n17 ) ( - ( - ( + ( + 0 ( * RFN1_main_y 1 ) ) ( * RFN1_main_z ( - 2 ) ) ) RFN1_main_y ) ) ) 0 ) ( = ( + ( * 1 lam24n1 ) ( * 1 lam24n2 ) ( * 1 lam24n4 ) ( * ( - 1 ) lam24n5 ) ( * ( - 25000 ) lam24n6 ) ( * 1 lam24n8 ) ( * 1 lam24n9 ) ( * ( - 16668 ) lam24n10 ) ( * ( - 1 ) lam24n11 ) ( * 2 lam24n12 ) ( * 1 lam24n14 ) ( * ( - 1 ) lam24n15 ) ( * 1 lam24n16 ) ( * Nl2main_z1 lam24n17 ) ( - ( - ( + 0 ( * RFN1_main_x 1 ) ) RFN1_main_z ) ) ) 0 ) ) ( and ( and ( >= lam22n0 0 ) ( >= lam22n1 0 ) ( >= lam22n2 0 ) ( >= lam22n3 0 ) ( >= lam22n4 0 ) ( >= lam22n5 0 ) ( >= lam22n6 0 ) ( >= lam22n7 0 ) ( >= lam22n8 0 ) ( >= lam22n9 0 ) ( >= lam22n10 0 ) ( >= lam22n11 0 ) ( >= lam22n12 0 ) ( >= lam22n13 0 ) ( >= lam22n14 0 ) ( >= lam22n15 0 ) ( >= lam22n16 0 ) ( >= lam22n17 0 ) ( > ( + ( * 2 lam22n0 ) ( * ( - 2 ) lam22n1 ) ( * 1 lam22n2 ) ( * 1 lam22n3 ) ( * 1 lam22n4 ) ( * 1 lam22n5 ) ( * 50001 lam22n6 ) ( * 50001 lam22n7 ) ( * 50001 lam22n8 ) ( * 50001 lam22n9 ) ( * 50001 lam22n10 ) ( * 50001 lam22n11 ) ( * 50001 lam22n12 ) ( * 50001 lam22n13 ) ( * 50001 lam22n14 ) ( * 50001 lam22n15 ) ( * 50001 lam22n16 ) ( * Nl2CT1 lam22n17 ) ( - 1 ( - RFN1_CT ) ) ) 0 ) ( = ( + ( * 1 lam22n0 ) ( * 2 lam22n2 ) ( * 1 lam22n3 ) ( * 1 lam22n4 ) ( * 2 lam22n6 ) ( * 1 lam22n7 ) ( * 1 lam22n8 ) ( * 1 lam22n9 ) ( * 1 lam22n10 ) ( * 1 lam22n11 ) ( * Nl2main_x1 lam22n17 ) ( - ( - RFN1_main_x ) ) ) 0 ) ( = ( + ( * ( - 2 ) lam22n0 ) ( * 2 lam22n1 ) ( * ( - 2 ) lam22n2 ) ( * ( - 2 ) lam22n5 ) ( * 1 lam22n6 ) ( * 1 lam22n7 ) ( * 1 lam22n8 ) ( * ( - 1 ) lam22n9 ) ( * ( - 1 ) lam22n10 ) ( * 1 lam22n12 ) ( * ( - 1 ) lam22n13 ) ( * ( - 1 ) lam22n14 ) ( * ( - 3 ) lam22n15 ) ( * Nl2main_y1 lam22n17 ) ( - ( - RFN1_main_y ) ) ) 0 ) ( = ( + ( * 1 lam22n1 ) ( * 1 lam22n2 ) ( * 1 lam22n4 ) ( * ( - 1 ) lam22n5 ) ( * ( - 25000 ) lam22n6 ) ( * 1 lam22n8 ) ( * 1 lam22n9 ) ( * ( - 16668 ) lam22n10 ) ( * ( - 1 ) lam22n11 ) ( * 2 lam22n12 ) ( * 1 lam22n14 ) ( * ( - 1 ) lam22n15 ) ( * 1 lam22n16 ) ( * Nl2main_z1 lam22n17 ) ( - ( - RFN1_main_z ) ) ) 0 ) ) ( and ( >= lam23n0 0 ) ( >= lam23n1 0 ) ( >= lam23n2 0 ) ( >= lam23n3 0 ) ( >= lam23n4 0 ) ( >= lam23n5 0 ) ( >= lam23n6 0 ) ( >= lam23n7 0 ) ( >= lam23n8 0 ) ( >= lam23n9 0 ) ( >= lam23n10 0 ) ( >= lam23n11 0 ) ( >= lam23n12 0 ) ( >= lam23n13 0 ) ( >= lam23n14 0 ) ( >= lam23n15 0 ) ( >= lam23n16 0 ) ( >= lam23n17 0 ) ( > ( + ( * 2 lam23n0 ) ( * ( - 2 ) lam23n1 ) ( * 1 lam23n2 ) ( * 1 lam23n3 ) ( * 1 lam23n4 ) ( * 1 lam23n5 ) ( * 50001 lam23n6 ) ( * 50001 lam23n7 ) ( * 50001 lam23n8 ) ( * 50001 lam23n9 ) ( * 50001 lam23n10 ) ( * 50001 lam23n11 ) ( * 50001 lam23n12 ) ( * 50001 lam23n13 ) ( * 50001 lam23n14 ) ( * 50001 lam23n15 ) ( * 50001 lam23n16 ) ( * Nl2CT1 lam23n17 ) ( - 1 ( + ( - ( + ( + ( + RFN1_CT ( * RFN1_main_x 0 ) ) ( * RFN1_main_y 1 ) ) ( * RFN1_main_z 0 ) ) RFN1_CT ) 1 ) ) ) 0 ) ( = ( + ( * 1 lam23n0 ) ( * 2 lam23n2 ) ( * 1 lam23n3 ) ( * 1 lam23n4 ) ( * 2 lam23n6 ) ( * 1 lam23n7 ) ( * 1 lam23n8 ) ( * 1 lam23n9 ) ( * 1 lam23n10 ) ( * 1 lam23n11 ) ( * Nl2main_x1 lam23n17 ) ( - ( - ( + 0 ( * RFN1_main_x 1 ) ) RFN1_main_x ) ) ) 0 ) ( = ( + ( * ( - 2 ) lam23n0 ) ( * 2 lam23n1 ) ( * ( - 2 ) lam23n2 ) ( * ( - 2 ) lam23n5 ) ( * 1 lam23n6 ) ( * 1 lam23n7 ) ( * 1 lam23n8 ) ( * ( - 1 ) lam23n9 ) ( * ( - 1 ) lam23n10 ) ( * 1 lam23n12 ) ( * ( - 1 ) lam23n13 ) ( * ( - 1 ) lam23n14 ) ( * ( - 3 ) lam23n15 ) ( * Nl2main_y1 lam23n17 ) ( - ( - ( + ( + 0 ( * RFN1_main_y 1 ) ) ( * RFN1_main_z ( - 2 ) ) ) RFN1_main_y ) ) ) 0 ) ( = ( + ( * 1 lam23n1 ) ( * 1 lam23n2 ) ( * 1 lam23n4 ) ( * ( - 1 ) lam23n5 ) ( * ( - 25000 ) lam23n6 ) ( * 1 lam23n8 ) ( * 1 lam23n9 ) ( * ( - 16668 ) lam23n10 ) ( * ( - 1 ) lam23n11 ) ( * 2 lam23n12 ) ( * 1 lam23n14 ) ( * ( - 1 ) lam23n15 ) ( * 1 lam23n16 ) ( * Nl2main_z1 lam23n17 ) ( - ( - ( + 0 ( * RFN1_main_x 1 ) ) RFN1_main_z ) ) ) 0 ) ) ) ) ( and ( >= lam21n0 0 ) ( >= lam21n1 0 ) ( >= lam21n2 0 ) ( >= lam21n3 0 ) ( >= lam21n4 0 ) ( >= lam21n5 0 ) ( >= lam21n6 0 ) ( >= lam21n7 0 ) ( >= lam21n8 0 ) ( >= lam21n9 0 ) ( >= lam21n10 0 ) ( >= lam21n11 0 ) ( >= lam21n12 0 ) ( >= lam21n13 0 ) ( >= lam21n14 0 ) ( >= lam21n15 0 ) ( >= lam21n16 0 ) ( >= lam21n17 0 ) ( > ( + ( * 2 lam21n0 ) ( * ( - 2 ) lam21n1 ) ( * 1 lam21n2 ) ( * 1 lam21n3 ) ( * 1 lam21n4 ) ( * 1 lam21n5 ) ( * 50001 lam21n6 ) ( * 50001 lam21n7 ) ( * 50001 lam21n8 ) ( * 50001 lam21n9 ) ( * 50001 lam21n10 ) ( * 50001 lam21n11 ) ( * 50001 lam21n12 ) ( * 50001 lam21n13 ) ( * 50001 lam21n14 ) ( * 50001 lam21n15 ) ( * 50001 lam21n16 ) ( * Nl2CT1 lam21n17 ) ( - 1 ) ) 0 ) ( = ( + ( * 1 lam21n0 ) ( * 2 lam21n2 ) ( * 1 lam21n3 ) ( * 1 lam21n4 ) ( * 2 lam21n6 ) ( * 1 lam21n7 ) ( * 1 lam21n8 ) ( * 1 lam21n9 ) ( * 1 lam21n10 ) ( * 1 lam21n11 ) ( * Nl2main_x1 lam21n17 ) ) 0 ) ( = ( + ( * ( - 2 ) lam21n0 ) ( * 2 lam21n1 ) ( * ( - 2 ) lam21n2 ) ( * ( - 2 ) lam21n5 ) ( * 1 lam21n6 ) ( * 1 lam21n7 ) ( * 1 lam21n8 ) ( * ( - 1 ) lam21n9 ) ( * ( - 1 ) lam21n10 ) ( * 1 lam21n12 ) ( * ( - 1 ) lam21n13 ) ( * ( - 1 ) lam21n14 ) ( * ( - 3 ) lam21n15 ) ( * Nl2main_y1 lam21n17 ) ) 0 ) ( = ( + ( * 1 lam21n1 ) ( * 1 lam21n2 ) ( * 1 lam21n4 ) ( * ( - 1 ) lam21n5 ) ( * ( - 25000 ) lam21n6 ) ( * 1 lam21n8 ) ( * 1 lam21n9 ) ( * ( - 16668 ) lam21n10 ) ( * ( - 1 ) lam21n11 ) ( * 2 lam21n12 ) ( * 1 lam21n14 ) ( * ( - 1 ) lam21n15 ) ( * 1 lam21n16 ) ( * Nl2main_z1 lam21n17 ) ) 0 ) ) ))
(check-sat)
(exit)
